(set-option :produce-models true)
(set-logic QF_UF)
(declare-fun p12() Bool)
(declare-fun p85() Bool)
(declare-fun p18() Bool)
(declare-fun p71() Bool)
(declare-fun p69() Bool)
(declare-fun p45() Bool)
(declare-fun p96() Bool)
(declare-fun p79() Bool)
(declare-fun p83() Bool)
(declare-fun p76() Bool)
(declare-fun p24() Bool)
(declare-fun p55() Bool)
(declare-fun p1() Bool)
(declare-fun p98() Bool)
(declare-fun p43() Bool)
(declare-fun p90() Bool)
(declare-fun p78() Bool)
(declare-fun p27() Bool)
(declare-fun p88() Bool)
(declare-fun p82() Bool)
(declare-fun p50() Bool)
(declare-fun p66() Bool)
(declare-fun p7() Bool)
(declare-fun p92() Bool)
(declare-fun p70() Bool)
(declare-fun p14() Bool)
(declare-fun p87() Bool)
(declare-fun p95() Bool)
(declare-fun p64() Bool)
(declare-fun p3() Bool)
(declare-fun p25() Bool)
(declare-fun p5() Bool)
(declare-fun p60() Bool)
(declare-fun p38() Bool)
(declare-fun p81() Bool)
(declare-fun p31() Bool)
(declare-fun p15() Bool)
(declare-fun p61() Bool)
(declare-fun p11() Bool)
(declare-fun p94() Bool)
(declare-fun p51() Bool)
(declare-fun p2() Bool)
(declare-fun p52() Bool)
(declare-fun p34() Bool)
(declare-fun p37() Bool)
(declare-fun p72() Bool)
(declare-fun p84() Bool)
(declare-fun p29() Bool)
(declare-fun p10() Bool)
(declare-fun p0() Bool)
(declare-fun p53() Bool)
(declare-fun p49() Bool)
(declare-fun p58() Bool)
(declare-fun p22() Bool)
(declare-fun p48() Bool)
(declare-fun p17() Bool)
(declare-fun p67() Bool)
(declare-fun p30() Bool)
(declare-fun p39() Bool)
(declare-fun p77() Bool)
(declare-fun p36() Bool)
(declare-fun p40() Bool)
(declare-fun p8() Bool)
(declare-fun p68() Bool)
(declare-fun p6() Bool)
(declare-fun p91() Bool)
(declare-fun p54() Bool)
(declare-fun p99() Bool)
(declare-fun p44() Bool)
(declare-fun p57() Bool)
(declare-fun p26() Bool)
(declare-fun p33() Bool)
(declare-fun p62() Bool)
(declare-fun p9() Bool)
(declare-fun p42() Bool)
(declare-fun p93() Bool)
(declare-fun p21() Bool)
(declare-fun p75() Bool)
(declare-fun p73() Bool)
(declare-fun p20() Bool)
(declare-fun p86() Bool)
(declare-fun p56() Bool)
(declare-fun p74() Bool)
(declare-fun p4() Bool)
(declare-fun p16() Bool)
(declare-fun p97() Bool)
(declare-fun p59() Bool)
(declare-fun p80() Bool)
(declare-fun p28() Bool)
(declare-fun p35() Bool)
(declare-fun p46() Bool)
(declare-fun p41() Bool)
(declare-fun p13() Bool)
(declare-fun p65() Bool)
(declare-fun p63() Bool)
(declare-fun p23() Bool)
(declare-fun p32() Bool)
(declare-fun p19() Bool)
(declare-fun p47() Bool)
(declare-fun p89() Bool)
(assert
(and (or p12 (not p85) p18) (or p71 (not p18) (not p69)) (or p45 (not p96) p79) (or (not p83) p76 p83) (or (not p24) p55 p83) (or p1 (not p98) (not p79)) (or p45 (not p76) (not p85)) (or p43 (not p90) (not p78)) (or p27 (not p88) p82) (or (not p50) (not p66) p7) (or p92 (not p70) (not p14)) (or p24 (not p87) (not p95)) (or (not p66) (not p64) p3) (or p25 (not p5) (not p25)) (or (not p60) (not p98) p38) (or (not p81) (not p82) p31) (or p7 (not p18) p15) (or p7 p61 (not p11)) (or p25 (not p11) (not p94)) (or p51 (not p2) (not p78)) (or (not p25) (not p3) p52) (or p70 p34 p37) (or (not p24) (not p72) (not p84)) (or p50 p29 p82) (or p10 p1 p0) (or (not p61) (not p0) (not p53)) (or (not p49) (not p58) (not p45)) (or p22 (not p84) (not p22)) (or p5 (not p5) p60) (or p29 p48 p12) (or (not p17) (not p67) (not p30)) (or p39 p72 p11) (or (not p18) p34 (not p77)) (or (not p12) (not p36) (not p40)) (or p8 (not p45) (not p40)) (or (not p95) (not p68) (not p6)) (or p70 (not p66) p5) (or p91 p71 p5) (or (not p70) p17 (not p38)) (or (not p54) p99 p11) (or (not p60) p10 (not p44)) (or (not p60) (not p57) (not p26)) (or (not p66) p11 (not p33)) (or p8 p62 p54) (or (not p9) (not p38) p42) (or (not p61) p37 p92) (or p87 (not p93) (not p94)) (or (not p76) (not p45) p77) (or p48 (not p36) p21) (or p84 (not p71) (not p67)) (or (not p96) (not p75) (not p73)) (or (not p20) (not p71) p86) (or (not p79) p66 p39) (or (not p95) (not p61) p51) (or p56 p94 (not p26)) (or (not p45) p7 p74) (or p62 (not p92) (not p57)) (or p4 (not p68) (not p27)) (or (not p54) (not p38) p69) (or (not p76) p16 p11) (or (not p97) p11 p88) (or (not p86) (not p59) (not p6)) (or p75 p16 (not p51)) (or (not p31) (not p61) (not p62)) (or (not p69) p80 (not p97)) (or (not p28) (not p28) (not p39)) (or p61 p37 p92) (or p35 (not p35) (not p98)) (or p31 (not p44) (not p69)) (or p3 p75 p39) (or (not p64) (not p8) (not p1)) (or p76 (not p33) (not p18)) (or p74 (not p40) p55) (or (not p66) (not p25) (not p45)) (or (not p45) (not p97) p98) (or (not p40) p67 p52) (or p9 (not p15) (not p57)) (or (not p71) (not p14) p87) (or (not p7) (not p74) (not p72)) (or (not p36) p55 (not p8)) (or (not p60) (not p8) (not p70)) (or p44 (not p96) (not p79)) (or (not p62) p25 (not p80)) (or (not p43) p52 (not p43)) (or p43 (not p35) p10) (or p9 (not p37) p77) (or (not p71) p97 (not p53)) (or (not p12) p11 (not p46)) (or (not p64) (not p68) (not p33)) (or p1 p71 (not p81)) (or (not p62) (not p55) p21) (or (not p12) (not p41) (not p92)) (or (not p67) p98 p82) (or (not p7) (not p54) (not p13)) (or (not p79) (not p44) (not p88)) (or (not p70) (not p59) (not p11)) (or (not p81) (not p65) p63) (or (not p92) (not p65) (not p81)) (or p88 (not p12) p58) (or p21 (not p2) p52) (or p26 p14 (not p66)) (or p78 p74 p95) (or (not p92) (not p5) (not p86)) (or (not p44) (not p91) p29) (or (not p27) p21 (not p75)) (or p81 (not p66) p90) (or (not p61) p54 p23) (or p51 (not p30) (not p5)) (or p96 p50 (not p21)) (or p10 p82 p34) (or p75 (not p24) (not p71)) (or (not p45) (not p24) p98) (or (not p83) p46 p15) (or p56 p17 p10) (or (not p96) p12 p88) (or p34 p31 p78) (or p42 (not p38) p0) (or p32 (not p66) (not p94)) (or p6 p48 p91) (or (not p32) (not p19) (not p52)) (or (not p64) (not p21) (not p3)) (or (not p64) p12 p0) (or p12 (not p75) (not p80)) (or (not p86) p6 p50) (or p74 p49 (not p78)) (or (not p52) p49 (not p55)) (or (not p70) p56 (not p12)) (or p29 p71 (not p98)) (or (not p78) (not p7) p91) (or (not p85) (not p76) (not p23)) (or p56 (not p18) p18) (or p39 (not p72) p10) (or (not p33) p88 p31) (or (not p52) p8 p72) (or p9 (not p17) p8) (or (not p38) p15 (not p13)) (or p33 (not p42) p35) (or p79 p23 p21) (or (not p37) p77 p7) (or p75 p28 p95) (or (not p82) p77 (not p56)) (or p59 p95 p5) (or (not p20) (not p56) p58) (or p60 p81 p12) (or (not p69) p35 (not p28)) (or (not p74) p49 p82) (or p90 (not p68) (not p8)) (or p99 p66 (not p78)) (or (not p0) p90 (not p44)) (or p28 p79 p42) (or (not p44) (not p52) p25) (or (not p72) p73 (not p25)) (or (not p34) p80 (not p24)) (or p69 p36 p4) (or p2 p20 (not p46)) (or p14 (not p30) (not p21)) (or p19 (not p37) p51) (or p77 p91 (not p6)) (or (not p23) p19 p2) (or p7 (not p69) (not p67)) (or (not p48) p66 p7) (or p80 p72 (not p61)) (or (not p38) (not p58) p77) (or (not p94) p12 (not p59)) (or (not p48) (not p82) p30) (or (not p72) (not p85) p66) (or (not p2) p0 (not p40)) (or (not p63) p82 p90) (or (not p43) (not p34) (not p35)) (or p74 (not p28) (not p72)) (or p42 (not p70) p99) (or (not p18) (not p27) (not p52)) (or p0 p62 p27) (or (not p6) (not p63) p56) (or (not p8) p58 p74) (or p40 (not p50) p79) (or (not p54) p94 p60) (or p32 (not p60) (not p60)) (or (not p72) p45 (not p12)) (or p31 p75 (not p12)) (or (not p16) p88 p20) (or (not p0) (not p26) (not p49)) (or p17 p88 (not p70)) (or (not p76) p37 (not p49)) (or p58 p47 p80) (or (not p40) p62 p92) (or (not p66) p81 p72) (or p56 (not p96) p27) (or (not p29) p54 p19) (or p85 p42 (not p60)) (or p98 p22 p47) (or p8 p92 p25) (or p47 (not p56) p74) (or (not p99) p38 (not p2)) (or (not p54) (not p22) p81) (or (not p51) p32 (not p36)) (or p80 p40 p78) (or p71 p48 p65) (or p82 (not p37) (not p54)) (or (not p82) p59 p68) (or (not p20) (not p17) (not p1)) (or p81 (not p18) (not p41)) (or p28 (not p26) (not p53)) (or p93 p77 p4) (or p77 p22 p71) (or p99 p4 (not p4)) (or p21 p93 p75) (or p74 p7 (not p57)) (or p15 (not p35) p60) (or (not p84) p23 p32) (or (not p9) p63 p96) (or (not p6) p61 p87) (or p91 p20 (not p51)) (or p48 p66 (not p36)) (or p45 (not p9) (not p24)) (or p65 p13 p20) (or p1 p97 p62) (or p53 p19 (not p37)) (or (not p84) (not p33) (not p89)) (or (not p56) p57 p99) (or (not p37) (not p56) (not p77)) (or p21 (not p77) p16) (or p40 (not p80) (not p58)) (or p97 (not p29) p74) (or p67 (not p83) p62) (or p68 p5 p63) (or p44 (not p53) p37) (or (not p28) (not p60) (not p0)) (or p92 p65 p39) (or p73 (not p39) (not p90)) (or (not p42) p64 p66) (or (not p63) p0 (not p23)) (or p26 (not p19) p14) (or (not p88) p0 p17) (or p11 (not p39) p80) (or (not p77) (not p81) p50) (or p10 p84 p14) (or (not p73) (not p43) p63) (or (not p34) p62 p1) (or (not p17) p47 (not p87)) (or (not p62) p75 p11) (or p88 p9 (not p61)) (or (not p43) (not p54) p33) (or (not p48) (not p53) (not p3)) (or p24 (not p2) p21) (or p90 p42 (not p21)) (or p13 (not p90) p5) (or p86 (not p95) p46) (or p73 (not p3) (not p38)) (or (not p9) (not p97) (not p74)) (or (not p14) (not p98) p9) (or p81 (not p82) (not p42)) (or p26 (not p31) p73) (or (not p4) p99 (not p6)) (or (not p24) p30 p69) (or p49 p99 p52) (or (not p45) p78 p79) (or p90 p33 p52) (or (not p36) p99 p18) (or (not p34) (not p2) p60) (or (not p9) (not p6) (not p45)) (or p93 (not p28) (not p47)) (or (not p44) (not p66) (not p80)) (or p79 p62 (not p67)) (or (not p68) (not p24) (not p76)) (or (not p79) (not p55) p19) (or p42 p38 (not p64)) (or (not p0) (not p63) p74) (or (not p75) (not p50) (not p2)) (or (not p13) (not p20) (not p39)) (or p20 p12 (not p51)) (or (not p45) (not p51) (not p73)) (or (not p76) p28 p46) (or p95 p59 p84) (or (not p40) p66 p94) (or p41 (not p21) (not p17)) (or p20 p65 p62) (or (not p24) (not p7) (not p82)) (or (not p44) (not p24) p66) (or (not p72) (not p19) (not p67)) (or (not p3) (not p59) (not p5)) (or (not p63) p43 (not p32)) (or p50 p46 (not p44)) (or p9 p32 p50) (or (not p16) (not p10) (not p7)) (or p39 (not p62) (not p35)) (or p54 p59 (not p38)) (or (not p89) (not p59) (not p77)) (or (not p75) p1 p66) (or (not p69) (not p91) (not p0)) (or (not p53) p72 (not p73)) (or (not p88) p67 (not p59)) (or (not p51) p51 (not p39)) (or (not p80) (not p29) p82) (or p43 p75 p99) (or p94 p16 p0) (or p34 (not p41) (not p39)) (or p14 p34 p48) (or (not p6) (not p15) p6) (or p95 (not p15) (not p33)) (or p83 p6 (not p69)) (or (not p54) p87 (not p63)) (or p30 (not p59) p78) (or p47 p98 (not p70)) (or p89 p68 (not p56)) (or p14 p40 (not p89)) (or p0 p59 (not p27)) (or p5 (not p75) p40) (or p98 p91 p94) (or (not p63) (not p42) (not p50)) (or p98 (not p6) (not p99)) (or p62 (not p3) p71) (or p27 (not p36) p30) (or (not p75) p54 (not p19)) (or (not p53) (not p55) (not p23)) (or (not p66) p41 p43) (or (not p69) p14 (not p23)) (or (not p90) (not p60) p73) (or p2 p0 (not p14)) (or (not p92) p1 (not p99)) (or (not p34) (not p41) p35) (or p50 p70 p56) (or (not p36) p28 p39) (or (not p60) p80 p81) (or (not p77) (not p80) p63) (or (not p14) p8 (not p14)) (or (not p76) p38 (not p24)) (or p75 p27 (not p41)) (or p84 p17 (not p54)) (or p98 (not p54) p20) (or p15 (not p38) (not p81)) (or p62 (not p5) p18) (or p34 (not p41) (not p37)) (or (not p81) (not p24) p35) (or p36 p61 (not p34)) (or (not p78) p77 (not p44)) (or (not p89) p63 (not p2)) (or (not p3) p96 (not p87)) (or p77 p17 p1) (or p80 (not p93) p32) (or p71 (not p30) (not p41)) (or (not p2) p21 (not p1)) (or (not p52) (not p93) (not p11)) (or p37 (not p72) p29) (or p82 p90 p83) (or p73 (not p1) (not p59)) (or (not p11) (not p92) p61) (or (not p74) (not p59) p15) (or (not p91) (not p91) (not p25)) (or p80 p31 (not p82)) (or (not p53) (not p88) (not p33)) (or (not p6) p37 p79) (or (not p86) p93 p65) (or p11 (not p67) (not p59)) (or p25 p40 (not p84)) (or (not p69) p36 p59) (or (not p35) p8 p48) (or p22 p18 (not p47)) (or p5 p96 p95) (or p2 (not p27) (not p12)) (or (not p77) (not p5) (not p14)) (or p21 p61 p94) (or (not p41) p87 p53) (or (not p92) (not p54) p9) (or p45 (not p55) p44) (or (not p78) p30 p23) (or p22 p87 p99) (or (not p43) p52 p34) (or p80 (not p35) (not p59)) (or (not p76) (not p28) (not p67)) (or p25 (not p40) p91) (or p5 p45 p22) (or p86 p27 p54) (or p78 (not p25) (not p59)) (or p40 p77 p40) (or p87 p53 (not p19)) (or (not p42) p53 p33) (or (not p85) (not p69) (not p7)) (or (not p68) p68 p34) (or (not p87) (not p85) p69) (or (not p82) p85 p29) (or (not p87) (not p73) (not p89)) (or p30 p84 p31) (or (not p24) p22 p53) (or p15 p77 p52) (or (not p18) p45 (not p34)) (or (not p72) p18 p62) (or p15 p51 p88) (or p95 p72 (not p2)) (or (not p21) (not p51) p77) (or (not p32) (not p64) p28) (or (not p79) (not p44) (not p47)) (or p47 p39 (not p83)) (or (not p89) (not p74) (not p51)) (or (not p32) (not p27) p10) (or (not p7) (not p60) p91) (or p0 p75 p24) (or (not p28) p47 (not p8)) (or p41 (not p63) (not p37)) (or p89 p23 (not p31)) (or p67 (not p34) p48) (or p35 p51 (not p92)) (or p62 p12 p1) (or p74 p82 (not p82)) (or p68 (not p29) (not p3)) (or (not p35) p82 (not p76)) (or p60 (not p85) (not p36)) (or p23 p28 p83) (or (not p45) p14 p14) (or p83 (not p36) (not p80)) (or p87 p73 (not p67)) (or p90 p15 p34) (or (not p67) (not p99) p0) (or (not p20) (not p71) (not p86)) (or (not p86) p84 (not p47)) (or p21 p12 (not p9)) (or p86 (not p34) (not p77)) (or (not p86) (not p8) p61) (or (not p65) p59 (not p63)) (or p73 p29 (not p17)))
)
(check-sat)
(get-model)
